p cnf 383 1166
a 1 2 3 4 5 6 7 8 10 11 12 13 14 15 16 17 18 19 20 21 22 23 24 25 26 27 28 29 30 31 33 34 35 36 37 38 39 40 42 43 44 45 46 47 48 49 51 52 53 54 55 56 57 58 59 61 62 63 64 65 66 67 68 69 70 71 72 73 74 76 77 78 79 81 82 83 84 85 86 87 88 89 90 91 92 93 94 0
e 9 60 75 80 95 96 97 98 99 100 101 102 103 104 105 106 107 108 109 110 111 112 113 114 115 116 117 118 119 120 121 122 123 124 125 126 127 128 129 130 131 132 133 134 135 136 137 138 139 140 141 142 143 144 145 146 147 148 149 150 151 152 153 154 155 156 157 158 159 160 161 162 163 164 165 166 167 168 169 170 171 172 173 174 175 176 177 178 179 180 181 182 183 184 185 186 187 188 189 190 191 192 193 194 195 196 197 198 199 200 201 202 203 204 205 206 207 208 209 210 211 212 213 214 215 216 217 218 219 220 221 222 223 224 225 226 227 228 229 230 231 232 233 234 235 236 237 238 239 240 241 242 243 244 245 246 247 248 249 250 251 252 253 254 255 256 257 258 259 260 261 262 263 264 265 266 267 268 269 270 271 272 273 274 275 276 277 278 279 280 281 282 283 284 285 286 287 288 289 290 291 292 293 294 295 296 297 298 299 300 301 302 303 304 305 306 307 308 309 310 311 312 313 314 315 316 317 318 319 320 321 322 323 324 325 326 327 328 329 330 331 332 333 334 335 336 337 338 339 340 341 342 343 344 345 346 347 348 349 350 351 352 353 354 355 356 357 358 359 360 361 362 363 364 365 366 367 368 369 370 371 372 373 374 375 376 377 378 379 380 381 382 383 0
-383 0
-382 -381 -377 -372 -357 -353 -349 -345 -340 -335 -330 -315 -272 -165 -144 -123 383 0
382 -314 0
382 -115 0
382 -116 0
382 -117 0
382 -271 0
382 -118 0
382 -119 0
382 -120 0
382 -121 0
382 -122 0
381 -114 0
381 -143 0
381 -380 0
381 -115 0
381 -116 0
381 -117 0
381 -118 0
381 -119 0
381 -120 0
381 -121 0
381 -122 0
-379 -378 -360 -359 -358 380 0
379 -283 0
379 -374 0
379 -182 0
379 -183 0
379 -184 0
379 -185 0
378 -290 0
378 -366 0
378 -182 0
378 -183 0
378 -184 0
378 -185 0
377 -164 0
377 -376 0
377 -143 0
377 -115 0
377 -116 0
377 -117 0
377 -118 0
377 -119 0
377 -120 0
377 -121 0
377 -122 0
-365 -364 -363 -375 -373 376 0
375 -196 0
375 -374 0
375 -182 0
375 -183 0
375 -184 0
375 -185 0
-370 -369 -368 374 0
373 -361 0
373 -181 0
373 -182 0
373 -183 0
373 -184 0
373 -185 0
372 -371 0
372 -143 0
372 -115 0
372 -116 0
372 -117 0
372 -271 0
372 -118 0
372 -119 0
372 -120 0
372 -121 0
372 -122 0
-370 -369 -368 -367 -362 371 0
370 -206 0
370 -182 0
370 -183 0
370 -299 0
370 -184 0
370 -185 0
369 -239 0
369 -227 0
369 -182 0
369 -183 0
369 -184 0
369 -185 0
368 -256 0
368 -182 0
368 -183 0
368 -184 0
368 -185 0
367 -366 0
367 -239 0
367 -182 0
367 -183 0
367 -184 0
367 -185 0
-365 -364 -363 366 0
365 -181 0
365 -182 0
365 -183 0
365 -299 0
365 -184 0
365 -185 0
364 -196 0
364 -256 0
364 -182 0
364 -183 0
364 -184 0
364 -185 0
363 -227 0
363 -182 0
363 -183 0
363 -184 0
363 -185 0
362 -361 0
362 -206 0
362 -182 0
362 -183 0
362 -184 0
362 -185 0
-360 -359 -358 361 0
360 -290 0
360 -227 0
360 -182 0
360 -183 0
360 -184 0
360 -185 0
359 -283 0
359 -256 0
359 -182 0
359 -183 0
359 -184 0
359 -185 0
358 -182 0
358 -183 0
358 -299 0
358 -184 0
358 -185 0
357 -104 0
357 -133 0
357 -356 0
357 -115 0
357 -116 0
357 -117 0
357 -118 0
357 -119 0
357 -120 0
357 -121 0
357 -122 0
-355 -354 -251 -246 -241 356 0
355 -229 0
355 -245 0
355 -182 0
355 -183 0
355 -184 0
355 -185 0
354 -336 0
354 -250 0
354 -182 0
354 -183 0
354 -184 0
354 -185 0
353 -154 0
353 -352 0
353 -133 0
353 -115 0
353 -116 0
353 -117 0
353 -118 0
353 -119 0
353 -120 0
353 -121 0
353 -122 0
-351 -350 -323 -322 -321 352 0
351 -341 0
351 -217 0
351 -182 0
351 -183 0
351 -184 0
351 -185 0
350 -319 0
350 -250 0
350 -182 0
350 -183 0
350 -184 0
350 -185 0
349 -348 0
349 -133 0
349 -314 0
349 -115 0
349 -116 0
349 -117 0
349 -118 0
349 -119 0
349 -120 0
349 -121 0
349 -122 0
-347 -346 -294 -293 -292 348 0
347 -286 0
347 -245 0
347 -182 0
347 -183 0
347 -184 0
347 -185 0
346 -331 0
346 -217 0
346 -182 0
346 -183 0
346 -184 0
346 -185 0
345 -344 0
345 -154 0
345 -115 0
345 -116 0
345 -117 0
345 -271 0
345 -118 0
345 -119 0
345 -120 0
345 -121 0
345 -122 0
-318 -317 -316 -343 -342 344 0
343 -324 0
343 -256 0
343 -182 0
343 -183 0
343 -184 0
343 -185 0
342 -341 0
342 -206 0
342 -182 0
342 -183 0
342 -184 0
342 -185 0
-328 -327 -326 341 0
340 -339 0
340 -104 0
340 -164 0
340 -115 0
340 -116 0
340 -117 0
340 -118 0
340 -119 0
340 -120 0
340 -121 0
340 -122 0
-228 -207 -186 -338 -337 339 0
338 -252 0
338 -227 0
338 -182 0
338 -183 0
338 -184 0
338 -185 0
337 -336 0
337 -196 0
337 -182 0
337 -183 0
337 -184 0
337 -185 0
-260 -259 -258 336 0
335 -334 0
335 -164 0
335 -314 0
335 -115 0
335 -116 0
335 -117 0
335 -118 0
335 -119 0
335 -120 0
335 -121 0
335 -122 0
-285 -284 -273 -333 -332 334 0
333 -295 0
333 -227 0
333 -182 0
333 -183 0
333 -184 0
333 -185 0
332 -331 0
332 -181 0
332 -182 0
332 -183 0
332 -184 0
332 -185 0
-303 -302 -301 331 0
330 -329 0
330 -154 0
330 -114 0
330 -115 0
330 -116 0
330 -117 0
330 -118 0
330 -119 0
330 -120 0
330 -121 0
330 -122 0
-328 -327 -326 -325 -320 329 0
328 -245 0
328 -182 0
328 -183 0
328 -299 0
328 -184 0
328 -185 0
327 -283 0
327 -239 0
327 -182 0
327 -183 0
327 -184 0
327 -185 0
326 -290 0
326 -182 0
326 -183 0
326 -184 0
326 -185 0
325 -324 0
325 -182 0
325 -183 0
325 -299 0
325 -184 0
325 -185 0
-323 -322 -321 324 0
323 -217 0
323 -290 0
323 -182 0
323 -183 0
323 -184 0
323 -185 0
322 -250 0
322 -239 0
322 -182 0
322 -183 0
322 -184 0
322 -185 0
321 -245 0
321 -182 0
321 -183 0
321 -184 0
321 -185 0
320 -319 0
320 -283 0
320 -182 0
320 -183 0
320 -184 0
320 -185 0
-318 -317 -316 319 0
318 -245 0
318 -256 0
318 -182 0
318 -183 0
318 -184 0
318 -185 0
317 -290 0
317 -206 0
317 -182 0
317 -183 0
317 -184 0
317 -185 0
316 -239 0
316 -182 0
316 -183 0
316 -184 0
316 -185 0
315 -304 0
315 -114 0
315 -314 0
315 -115 0
315 -116 0
315 -117 0
315 -118 0
315 -119 0
315 -120 0
315 -121 0
315 -122 0
-313 -310 -307 314 0
313 -311 0
313 -312 0
313 -21 0
313 -20 0
-14 9 312 0
-9 -18 311 0
310 -308 0
310 -309 0
310 -23 0
310 -22 0
-15 9 309 0
-9 -17 308 0
307 -305 0
307 -306 0
307 -25 0
307 -24 0
-9 -19 306 0
-16 9 305 0
-303 -302 -301 -300 -291 304 0
303 -250 0
303 -182 0
303 -183 0
303 -299 0
303 -184 0
303 -185 0
302 -290 0
302 -196 0
302 -182 0
302 -183 0
302 -184 0
302 -185 0
301 -283 0
301 -182 0
301 -183 0
301 -184 0
301 -185 0
300 -295 0
300 -182 0
300 -183 0
300 -299 0
300 -184 0
300 -185 0
-298 -297 -296 299 0
298 -224 0
298 -225 0
298 -280 0
298 -281 0
298 -79 0
298 -72 0
298 -65 0
298 -64 0
298 -63 0
298 -38 0
298 -35 0
297 -221 0
297 -222 0
297 -277 0
297 -278 0
297 -81 0
297 -73 0
297 -68 0
297 -67 0
297 -66 0
297 -47 0
297 -44 0
296 -218 0
296 -219 0
296 -274 0
296 -275 0
296 -82 0
296 -74 0
296 -71 0
296 -70 0
296 -69 0
296 -56 0
296 -53 0
-294 -293 -292 295 0
294 -217 0
294 -283 0
294 -182 0
294 -183 0
294 -184 0
294 -185 0
293 -245 0
293 -196 0
293 -182 0
293 -183 0
293 -184 0
293 -185 0
292 -250 0
292 -182 0
292 -183 0
292 -184 0
292 -185 0
291 -286 0
291 -290 0
291 -182 0
291 -183 0
291 -184 0
291 -185 0
-289 -288 -287 290 0
289 -236 0
289 -237 0
289 -280 0
289 -281 0
289 -76 0
289 -72 0
289 -64 0
289 -63 0
289 -37 0
289 -36 0
289 -35 0
288 -233 0
288 -234 0
288 -277 0
288 -278 0
288 -77 0
288 -73 0
288 -67 0
288 -66 0
288 -46 0
288 -45 0
288 -44 0
287 -230 0
287 -231 0
287 -274 0
287 -275 0
287 -78 0
287 -74 0
287 -70 0
287 -69 0
287 -55 0
287 -54 0
287 -53 0
-285 -284 -273 286 0
285 -250 0
285 -227 0
285 -182 0
285 -183 0
285 -184 0
285 -185 0
284 -181 0
284 -283 0
284 -182 0
284 -183 0
284 -184 0
284 -185 0
-282 -279 -276 283 0
282 -193 0
282 -194 0
282 -280 0
282 -281 0
282 -72 0
282 -63 0
282 -38 0
282 -37 0
282 -36 0
282 -35 0
282 -34 0
-26 75 281 0
-30 -75 280 0
279 -190 0
279 -191 0
279 -277 0
279 -278 0
279 -73 0
279 -66 0
279 -47 0
279 -46 0
279 -45 0
279 -44 0
279 -43 0
-27 75 278 0
-29 -75 277 0
276 -187 0
276 -188 0
276 -274 0
276 -275 0
276 -74 0
276 -69 0
276 -56 0
276 -55 0
276 -54 0
276 -53 0
276 -52 0
-31 -75 275 0
-28 75 274 0
273 -196 0
273 -182 0
273 -183 0
273 -184 0
273 -185 0
272 -261 0
272 -104 0
272 -115 0
272 -116 0
272 -117 0
272 -271 0
272 -118 0
272 -119 0
272 -120 0
272 -121 0
272 -122 0
-270 -267 -264 271 0
270 -268 0
270 -269 0
270 -8 0
270 -7 0
-1 9 269 0
-5 -9 268 0
267 -265 0
267 -266 0
267 -11 0
267 -10 0
-2 9 266 0
-4 -9 265 0
264 -262 0
264 -263 0
264 -13 0
264 -12 0
-3 9 263 0
-6 -9 262 0
-260 -259 -258 -257 -240 261 0
260 -217 0
260 -256 0
260 -182 0
260 -183 0
260 -184 0
260 -185 0
259 -181 0
259 -239 0
259 -182 0
259 -183 0
259 -184 0
259 -185 0
258 -206 0
258 -182 0
258 -183 0
258 -184 0
258 -185 0
257 -252 0
257 -256 0
257 -182 0
257 -183 0
257 -184 0
257 -185 0
-255 -254 -253 256 0
255 -203 0
255 -224 0
255 -225 0
255 -79 0
255 -64 0
255 -63 0
255 -204 0
255 -38 0
255 -37 0
255 -35 0
255 -33 0
254 -200 0
254 -201 0
254 -221 0
254 -222 0
254 -81 0
254 -67 0
254 -66 0
254 -47 0
254 -46 0
254 -44 0
254 -42 0
253 -197 0
253 -198 0
253 -218 0
253 -219 0
253 -82 0
253 -70 0
253 -69 0
253 -56 0
253 -55 0
253 -53 0
253 -51 0
-251 -246 -241 252 0
251 -250 0
251 -206 0
251 -182 0
251 -183 0
251 -184 0
251 -185 0
-249 -248 -247 250 0
249 -214 0
249 -215 0
249 -193 0
249 -194 0
249 -83 0
249 -72 0
249 -63 0
249 -38 0
249 -37 0
249 -36 0
249 -34 0
248 -211 0
248 -212 0
248 -190 0
248 -191 0
248 -84 0
248 -73 0
248 -66 0
248 -47 0
248 -46 0
248 -45 0
248 -43 0
247 -208 0
247 -209 0
247 -187 0
247 -188 0
247 -85 0
247 -74 0
247 -69 0
247 -56 0
247 -55 0
247 -54 0
247 -52 0
246 -245 0
246 -181 0
246 -182 0
246 -183 0
246 -184 0
246 -185 0
-244 -243 -242 245 0
244 -214 0
244 -215 0
244 -236 0
244 -237 0
244 -83 0
244 -72 0
244 -64 0
244 -63 0
244 -38 0
244 -37 0
244 -36 0
243 -211 0
243 -212 0
243 -233 0
243 -234 0
243 -84 0
243 -73 0
243 -67 0
243 -66 0
243 -47 0
243 -46 0
243 -45 0
242 -208 0
242 -209 0
242 -230 0
242 -231 0
242 -85 0
242 -74 0
242 -70 0
242 -69 0
242 -56 0
242 -55 0
242 -54 0
241 -217 0
241 -182 0
241 -183 0
241 -184 0
241 -185 0
240 -229 0
240 -239 0
240 -182 0
240 -183 0
240 -184 0
240 -185 0
-238 -235 -232 239 0
238 -236 0
238 -237 0
238 -203 0
238 -65 0
238 -64 0
238 -63 0
238 -204 0
238 -38 0
238 -36 0
238 -35 0
238 -33 0
-39 60 237 0
-40 -60 236 0
235 -233 0
235 -234 0
235 -200 0
235 -201 0
235 -68 0
235 -67 0
235 -66 0
235 -47 0
235 -45 0
235 -44 0
235 -42 0
-48 60 234 0
-49 -60 233 0
232 -230 0
232 -231 0
232 -197 0
232 -198 0
232 -71 0
232 -70 0
232 -69 0
232 -56 0
232 -54 0
232 -53 0
232 -51 0
-57 60 231 0
-58 -60 230 0
-228 -207 -186 229 0
228 -217 0
228 -227 0
228 -182 0
228 -183 0
228 -184 0
228 -185 0
-226 -223 -220 227 0
226 -176 0
226 -177 0
226 -224 0
226 -225 0
226 -79 0
226 -72 0
226 -64 0
226 -63 0
226 -38 0
226 -37 0
226 -35 0
-39 80 225 0
-40 -80 224 0
223 -171 0
223 -172 0
223 -221 0
223 -222 0
223 -81 0
223 -73 0
223 -67 0
223 -66 0
223 -47 0
223 -46 0
223 -44 0
-48 80 222 0
-49 -80 221 0
220 -166 0
220 -167 0
220 -218 0
220 -219 0
220 -82 0
220 -74 0
220 -70 0
220 -69 0
220 -56 0
220 -55 0
220 -53 0
-57 80 219 0
-58 -80 218 0
-216 -213 -210 217 0
216 -214 0
216 -215 0
216 -178 0
216 -179 0
216 -83 0
216 -76 0
216 -72 0
216 -64 0
216 -63 0
216 -37 0
216 -36 0
-26 80 215 0
-30 -80 214 0
213 -211 0
213 -212 0
213 -173 0
213 -174 0
213 -84 0
213 -77 0
213 -73 0
213 -67 0
213 -66 0
213 -46 0
213 -45 0
-27 80 212 0
-29 -80 211 0
210 -208 0
210 -209 0
210 -168 0
210 -169 0
210 -85 0
210 -78 0
210 -74 0
210 -70 0
210 -69 0
210 -55 0
210 -54 0
-28 80 209 0
-31 -80 208 0
207 -196 0
207 -206 0
207 -182 0
207 -183 0
207 -184 0
207 -185 0
-205 -202 -199 206 0
205 -178 0
205 -179 0
205 -203 0
205 -64 0
205 -63 0
205 -204 0
205 -38 0
205 -37 0
205 -36 0
205 -35 0
205 -33 0
-9 -30 204 0
-26 9 203 0
202 -173 0
202 -174 0
202 -200 0
202 -201 0
202 -67 0
202 -66 0
202 -47 0
202 -46 0
202 -45 0
202 -44 0
202 -42 0
-27 9 201 0
-9 -29 200 0
199 -197 0
199 -198 0
199 -168 0
199 -169 0
199 -70 0
199 -69 0
199 -56 0
199 -55 0
199 -54 0
199 -53 0
199 -51 0
-28 9 198 0
-9 -31 197 0
-195 -192 -189 196 0
195 -193 0
195 -194 0
195 -176 0
195 -177 0
195 -76 0
195 -72 0
195 -63 0
195 -37 0
195 -36 0
195 -35 0
195 -34 0
-39 9 194 0
-9 -40 193 0
192 -190 0
192 -191 0
192 -171 0
192 -172 0
192 -77 0
192 -73 0
192 -66 0
192 -46 0
192 -45 0
192 -44 0
192 -43 0
9 -48 191 0
-9 -49 190 0
189 -187 0
189 -188 0
189 -166 0
189 -167 0
189 -78 0
189 -74 0
189 -69 0
189 -55 0
189 -54 0
189 -53 0
189 -52 0
9 -57 188 0
-9 -58 187 0
186 -181 0
186 -182 0
186 -183 0
186 -184 0
186 -185 0
-27 26 185 0
-30 29 184 0
-28 27 183 0
-29 31 182 0
-180 -175 -170 181 0
180 -176 0
180 -177 0
180 -178 0
180 -179 0
180 -72 0
180 -65 0
180 -64 0
180 -63 0
180 -38 0
180 -36 0
180 -35 0
-39 75 179 0
-40 -75 178 0
-26 60 177 0
-30 -60 176 0
175 -171 0
175 -172 0
175 -173 0
175 -174 0
175 -73 0
175 -68 0
175 -67 0
175 -66 0
175 -47 0
175 -45 0
175 -44 0
-48 75 174 0
-49 -75 173 0
-27 60 172 0
-29 -60 171 0
170 -166 0
170 -167 0
170 -168 0
170 -169 0
170 -74 0
170 -71 0
170 -70 0
170 -69 0
170 -56 0
170 -54 0
170 -53 0
-57 75 169 0
-58 -75 168 0
-28 60 167 0
-31 -60 166 0
165 -154 0
165 -164 0
165 -115 0
165 -116 0
165 -117 0
165 -118 0
165 -119 0
165 -120 0
165 -121 0
165 -122 0
-163 -160 -157 164 0
163 -89 0
163 -161 0
163 -162 0
163 -8 0
-5 -60 162 0
-1 60 161 0
160 -90 0
160 -158 0
160 -159 0
160 -11 0
-4 -60 159 0
-2 60 158 0
157 -91 0
157 -155 0
157 -156 0
157 -13 0
-6 -60 156 0
-3 60 155 0
-153 -150 -147 154 0
153 -151 0
153 -152 0
153 -59 0
153 -21 0
-14 60 152 0
-18 -60 151 0
150 -148 0
150 -149 0
150 -61 0
150 -23 0
-15 60 149 0
-17 -60 148 0
147 -145 0
147 -146 0
147 -62 0
147 -25 0
-19 -60 146 0
-16 60 145 0
144 -133 0
144 -143 0
144 -115 0
144 -116 0
144 -117 0
144 -118 0
144 -119 0
144 -120 0
144 -121 0
144 -122 0
-142 -139 -136 143 0
142 -140 0
142 -141 0
142 -86 0
142 -59 0
-14 80 141 0
-18 -80 140 0
139 -137 0
139 -138 0
139 -87 0
139 -61 0
-15 80 138 0
-17 -80 137 0
136 -134 0
136 -135 0
136 -88 0
136 -62 0
-16 80 135 0
-19 -80 134 0
-132 -129 -126 133 0
132 -130 0
132 -131 0
132 -92 0
132 -89 0
-1 80 131 0
-5 -80 130 0
129 -127 0
129 -128 0
129 -93 0
129 -90 0
-2 80 128 0
-4 -80 127 0
126 -124 0
126 -125 0
126 -94 0
126 -91 0
-3 80 125 0
-6 -80 124 0
123 -104 0
123 -114 0
123 -115 0
123 -116 0
123 -117 0
123 -118 0
123 -119 0
123 -120 0
123 -121 0
123 -122 0
-5 4 122 0
-4 6 121 0
-3 2 120 0
-2 1 119 0
-16 15 118 0
-15 14 117 0
-18 17 116 0
-17 19 115 0
-113 -110 -107 114 0
113 -111 0
113 -112 0
113 -89 0
113 -8 0
-1 75 112 0
-5 -75 111 0
110 -108 0
110 -109 0
110 -90 0
110 -11 0
-2 75 109 0
-4 -75 108 0
107 -105 0
107 -106 0
107 -91 0
107 -13 0
-3 75 106 0
-6 -75 105 0
-103 -100 -97 104 0
103 -101 0
103 -102 0
103 -59 0
103 -21 0
-14 75 102 0
-18 -75 101 0
100 -98 0
100 -99 0
100 -61 0
100 -23 0
-17 -75 99 0
-15 75 98 0
97 -95 0
97 -96 0
97 -62 0
97 -25 0
-16 75 96 0
-19 -75 95 0
